26
Coordinates from ORCA-job TS_omega_eta_psi_ff_9398 E -573.111169726329
  C           3.17745253106367     -5.50871107849182     -0.81282052195329
  C           1.72582180075434     -5.87256477355332     -0.88495002726035
  C           0.18518369363807     -6.39369574024886      0.97471251262316
  C          -1.08779691252440     -6.69254966339214      0.13135845065684
  C          -1.34177992265227     -5.37030306620548     -0.62354359837434
  C          -0.13430667263040     -4.47399881153748     -0.25082522210489
  C           1.01870020428026     -7.62955662147718      1.27100224264504
  C           1.04118525967312     -9.76155619013541      2.52311028841184
  H           3.73243149006673     -6.00099793988939     -1.61272991950960
  H          -0.40219686002563     -3.78713060162621      0.56287881752658
  H          -0.44510433694272     -8.23626319764112      2.55653906905448
  H           0.38431299360141    -10.59365961072955      2.24343313936949
  H           1.24384979318417     -9.81431224235149      3.59913813124056
  H           1.98339924021110     -9.85712491287948      1.98013978665734
  H           3.26041449039648     -4.41931419019181     -0.92211384175566
  H           3.58095425061043     -5.76978377962348      0.16657619825160
  H          -0.12549578325077     -5.94251443212044      1.93167220717914
  H          -0.87990324651502     -7.50457956876665     -0.57068353044315
  H          -1.93090916100968     -6.98957612413818      0.76476733711918
  H          -2.28558300178168     -4.89963337810754     -0.32894606471819
  H          -1.36946219413987     -5.55113226396811     -1.69993361393473
  H           0.23148246358249     -3.87271311436394     -1.08899760454071
  N           0.94522120609695     -5.35959712279683      0.25509266720764
  N           0.44957758342509     -8.48255071987044      2.16432483137247
  O           1.20805271828896     -6.38996727180136     -1.84854836838231
  O           2.09541837259913     -7.84257358409142      0.72677663366181
