26
Coordinates from ORCA-job TS_search_scan_18441_fb_288 E -573.115961687619
  C           2.16030596566487     -4.40824936815941      1.15645562655169
  C           2.23490826790569     -5.69161214246065      0.35336884292616
  C           0.01093495062049     -6.61614615213805      0.83931380627506
  C          -1.32394334056636     -6.47649853581578      0.09503407496917
  C          -1.10271011931257     -5.21117285614521     -0.73239433124894
  C           0.35474830607529     -5.34659216305462     -1.19252280014469
  C           0.19768351476013     -8.02692164868541      1.40101961684846
  C           1.45172098533169    -10.13200107789980      1.19715106365200
  H           1.25547975064619     -3.82674007119093      0.96195196454701
  H           0.86181979532111     -4.37409826546109     -1.26705084638999
  H           1.66423122559053     -8.32915446091681      0.04605008337973
  H           2.50442256806482    -10.21123816874125      1.49284263280233
  H           1.25845183754486    -10.84892303952046      0.39008346839812
  H           0.81979976004451    -10.38220005756043      2.05242191243041
  H           2.16683554712819     -4.67731979855257      2.21934676063016
  H           3.05178372629810     -3.80578938823934      0.97036177453296
  H           0.00481707882972     -5.93994717218019      1.71290682158041
  H          -1.46941775956884     -7.34768301123297     -0.55565467114110
  H          -2.16525945949145     -6.41950394050731      0.78836736336666
  H          -1.22220432574287     -4.32626486353332     -0.09525091965265
  H          -1.79604632366615     -5.11570426613734     -1.57321590272945
  H           0.42453826469647     -5.82466378797269     -2.17795060508103
  N           1.00816223428397     -6.22802532957870     -0.18175924545201
  N           1.13354571550733     -8.77845763352961      0.78190104442109
  O           3.28080132396269     -6.27307211537641      0.18850097629394
  O          -0.50448948992903     -8.39838068540376      2.33615148823413
