26
Coordinates from ORCA-job scan_18441_fb E -38.265380019640
  C           2.17853926212791     -4.43634832756449      1.24207189927502
  C           2.23395235622823     -5.72915745168122      0.46295012829526
  C          -0.01823263338267     -6.56955651865417      0.87497227353581
  C          -1.31649597119681     -6.46672506204034      0.06758732400240
  C          -1.05538444133686     -5.24686138708659     -0.81007936478987
  C           0.42694809451505     -5.39794187264294     -1.16252147103336
  C           0.18304076479243     -7.97579284789255      1.44747162894806
  C           1.38740019431610    -10.07668051430852      1.11410180277968
  H           1.29189016264927     -3.85268615131981      1.01231007486156
  H           0.93305476961937     -4.43285320012335     -1.26267501575534
  H           1.51689230377122     -8.29239466913743     -0.02995938825391
  H           2.44823967835866    -10.12978824473095      1.36624005274494
  H           1.17733830874965    -10.77675702862365      0.30359475962788
  H           0.79388921080067    -10.34358279346977      1.98746488310448
  H           2.17273614895331     -4.68666351021413      2.30274513678218
  H           3.07641316133099     -3.85553161722035      1.04645959355746
  H          -0.06125020982174     -5.87321162693769      1.72712173104980
  H          -1.43387187424659     -7.35904372042291     -0.54819824738818
  H          -2.18583359757282     -6.36315344695124      0.71161372365050
  H          -1.22210866124468     -4.33215303914298     -0.23870049334760
  H          -1.68569573233528     -5.22095548246698     -1.69606921460907
  H           0.55185814246762     -5.94103888581129     -2.10588215874089
  N           1.01330605777371     -6.21487251504753     -0.09518147253385
  N           1.01980323521228     -8.73825298798481      0.72951104656888
  O           3.24280974116396     -6.36162463033766      0.31701141337282
  O          -0.40831847169313     -8.34273246818529      2.44346935429530
