26
Coordinates from ORCA-job scan_10748_bf E -38.263436962160
  C           3.18042256244985     -5.49053271197744     -0.63664006306265
  C           2.08112362453803     -5.11263055692673      0.29633246476026
  C           0.19075051468909     -6.55392483137478      0.72595035801627
  C          -1.22432727965766     -6.66052223580011      0.14751644000382
  C          -1.55643668415007     -5.21034533329906     -0.22098933460578
  C          -0.18707013546002     -4.52063429863728     -0.34040058189811
  C           0.92215793329326     -7.89035293975125      0.70776646392033
  C           1.08057357396699    -10.03609430823441      1.88386988807993
  H           3.15163323298753     -6.57319581910691     -0.75415147577756
  H          -0.07487189554271     -3.74438943335403      0.43006466958567
  H          -0.12551819364539     -8.38518734035790      2.39582925913170
  H           0.28372478618105    -10.78078702788686      1.84029330896647
  H           1.60533631056707    -10.12634734507287      2.83668002361605
  H           1.78089411591409    -10.20714130589533      1.06818851014738
  H           2.97911668569052     -5.05512461652020     -1.61262237322999
  H           4.14549333932876     -5.16166051386355     -0.26274322260649
  H           0.15325294915097     -6.17720321749950      1.76636151909145
  H          -1.18662334205258     -7.28187574438122     -0.74716414025761
  H          -1.93393896253057     -7.09241027961546      0.85121522831916
  H          -2.15099835765931     -4.73963655135415      0.56163782263069
  H          -2.11571095192530     -5.15547589415372     -1.15252158842547
  H          -0.03311109067733     -4.06072564625203     -1.31911672091602
  N           0.80305762000878     -5.58340874457108     -0.16963322851052
  N           0.54594449677325     -8.70650794862878      1.71750146737025
  O           2.20676464035249     -4.49909631286356      1.32224877297463
  O           1.73928050740906     -8.21114904262084     -0.12804346732393
