26
Coordinates from ORCA-job TS_omega_eta_psi_bb_18727 E -573.108547752801
  C           2.11801895404758     -5.92228311146667     -0.96983000266255
  C           1.93321797746422     -5.77504762751802      0.52151050804865
  C          -0.33469979744201     -6.77233803446260      0.78766716481858
  C          -1.04230348472782     -6.47815195963116     -0.54174800484917
  C          -1.07022538960348     -4.93720806638588     -0.61388049162026
  C          -0.12689675990905     -4.45626941058866      0.52541812898059
  C           0.34418516336991     -8.14118043901903      0.86409553013277
  C           1.94818654704515     -9.50006431101438      2.13595611539106
  H           1.47813761774872     -5.24256371881653     -1.53854472484872
  H          -0.71121068848131     -4.02102170176476      1.34563643264769
  H           1.37075482584536     -7.47816640817771      2.48504530319353
  H           2.09113819474539     -9.68369832112850      3.20458868361176
  H           2.93219284125309     -9.40342727435438      1.65807847830467
  H           1.42713874535264    -10.34871076866254      1.68827522843776
  H           3.16655186454127     -5.76889982768417     -1.22957414330074
  H           1.83206277166010     -6.94474175235864     -1.25026624840274
  H          -1.08390311619519     -6.74680187567939      1.59669727661625
  H          -0.48342100588661     -6.92020935411610     -1.37007430876054
  H          -2.04019312029139     -6.92331664762319     -0.56414460038094
  H          -2.07923368897790     -4.54389987557353     -0.45692383371472
  H          -0.74089489934827     -4.57904332057572     -1.59405472949526
  H           0.59123690321735     -3.69246551185564      0.20572017169313
  N           0.58885058519430     -5.63816101444257      1.06318441357386
  N           1.13962908196881     -8.30508209140100      1.95079299597044
  O           2.87587860878436     -5.78252953709633      1.27750303561081
  O           0.13672126862464     -9.01107803860103      0.02630162100392
