26
Coordinates from ORCA-job TS_search_scan_10748_bf_284 E -573.113648800316
  C           3.10372360223486     -5.92221912638593     -0.04488556191658
  C           1.87595066590142     -5.49387072089975      0.69721325632847
  C          -0.26235992376234     -6.65468992387358      0.61156391413828
  C          -1.56475211726399     -6.47898753078907     -0.17113119751659
  C          -1.50661497047451     -5.02361040619408     -0.70173184801861
  C          -0.17886243350308     -4.47302371207423     -0.16628565287170
  C           0.32959947997030     -8.06587138740841      0.54653943443232
  C           1.77222691559490     -9.67950465590063      1.70102592535729
  H           2.97699886890778     -6.96082817659656     -0.37269642005574
  H          -0.31598615848502     -4.00059197986890      0.82159009456586
  H           1.17994533177855     -7.73763898606765      2.38224010199330
  H           2.27452800511921     -9.75896476049704      2.66770383432491
  H           2.51585410933991     -9.76564276742387      0.90021136619882
  H           1.06666873299497    -10.50955124643867      1.59081885224602
  H           3.18816737880390     -5.32963006315457     -0.96330021494298
  H           3.99841164582773     -5.80879371589235      0.56907328174830
  H          -0.40797655201889     -6.35732776997958      1.66878956812993
  H          -1.58516957359935     -7.20296090033408     -0.98937746973251
  H          -2.43052576979451     -6.66280393434630      0.47166312512892
  H          -2.35008528839051     -4.41611582206897     -0.36146231541354
  H          -1.50894457000682     -5.01837695951690     -1.79510480502155
  H           0.29556115033711     -3.74821029817299     -0.83767109336585
  N           0.65234873043497     -5.69360684662023     -0.06040728900588
  N           1.07403687817779     -8.40392351996111      1.63333117732141
  O           1.88601425685746     -5.03507206621176      1.81846268133467
  O           0.18216160501784     -8.81454272332004     -0.40874274538717
