26
Coordinates from ORCA-job omega_eta_psi_ff E -38.263586215810
  C           3.16979619348670     -5.53897604824845     -0.66869784101143
  C           1.72246457223454     -5.89868734882027     -0.84045862319008
  C           0.19041914985347     -6.32622029347301      1.02356574735005
  C          -1.15886087105427     -6.61593897772284      0.30712749927219
  C          -1.32871931604925     -5.44646933158092     -0.67142465904398
  C          -0.15874978801917     -4.50961322890255     -0.33319781181879
  C           1.00776153017032     -7.59282354180476      1.19832561861987
  C           1.08255976733678     -9.74404584243028      2.36567994162897
  H           3.78185807938863     -6.12155776291951     -1.34984026759558
  H          -0.44827339004397     -3.79460848510899      0.44360650222981
  H          -0.36536229299130     -8.22378056920664      2.57396161008109
  H           0.38917890028582    -10.54865792209829      2.11438578973116
  H           1.36380246253408     -9.82704349604137      3.41693235115336
  H           1.97277807475958     -9.82753597885811      1.74478040209414
  H           3.27663522526320     -4.47870255609463     -0.89571884001686
  H           3.47819102473053     -5.70478339653905      0.35748149839730
  H           0.00124294703966     -5.87329307407651      2.00643580912898
  H          -1.09964631083715     -7.56272105788031     -0.22927142214744
  H          -1.97604692852877     -6.67295552039508      1.02576718408868
  H          -2.28835094919626     -4.94495900548207     -0.55858540401913
  H          -1.23023579159609     -5.79504661495122     -1.69765502106117
  H           0.20680098834176     -3.95818502757028     -1.19847644292886
  N           0.90809565170944     -5.33888444851955      0.22781631926629
  N           0.49081923139241     -8.45543085740593      2.09717772017309
  O           1.25074230377645     -6.40248802035262     -1.82195840914687
  O           2.02201953601282     -7.81295159351605      0.56967074876516
