26
Coordinates from ORCA-job omega_eta_psi_bb E -38.264087658200
  C           2.11408138141643     -6.08174431107798     -0.92673368625666
  C           1.91046270623359     -5.81125254536906      0.53905517010199
  C          -0.35502386815238     -6.74833687070779      0.82607582709834
  C          -1.16462292841851     -6.45333547104956     -0.44933257550522
  C          -1.04472955427333     -4.93507521234692     -0.64409259459713
  C          -0.13337076647155     -4.46199179257550      0.50930865187849
  C           0.38744361056277     -8.08318497264485      0.80429829651787
  C           2.02403036954551     -9.40748937312832      2.05021340822142
  H           1.61934369313133     -5.32478351032554     -1.52978418312174
  H          -0.74023980563600     -4.07015712101535      1.33142979551054
  H           1.23943072970157     -7.51848667864204      2.56091058389087
  H           1.82789816173517     -9.91570421805707      2.99508788942775
  H           3.06803373681367     -9.08961438130886      2.02247359900552
  H           1.82908857992978    -10.08827206915007      1.22320568204837
  H           3.17787852340991     -6.09400794987059     -1.14927521689034
  H           1.68471207307282     -7.05028611305792     -1.17854811148901
  H          -1.02563411235328     -6.74795356596356      1.69728558437892
  H          -0.74095324594115     -7.00763503571735     -1.28645241228902
  H          -2.19746012534726     -6.77340178825567     -0.33057625833979
  H          -2.01409141934205     -4.44338488832425     -0.58768669541328
  H          -0.60927140152209     -4.69602172986881     -1.61386223557960
  H           0.57559451837242     -3.68925489610742      0.21079564602070
  N           0.56969446491010     -5.63013338489142      1.01804498909855
  N           1.14356677727297     -8.27457820609983      1.90007316827951
  O           2.81550886946813     -5.74146571882503      1.32502177034689
  O           0.29954903188138     -8.87880819561835     -0.10950609234401
