26
AcProNHME Crystal Structure.cif
 C      2.83921     -4.51836       0.85753
 C      1.77365     -5.38560       1.43400
 C     -0.37499     -6.51948       1.11350
 C     -1.45418     -6.28056       0.05521
 C     -0.69154     -5.97168      -1.20313
 C      0.52012     -5.17176      -0.72130
 C     -0.07402     -8.00976       1.28056
 C      1.32269     -9.90528       0.76289
 H      3.27751     -5.07012       0.14197
 H      0.27369     -4.22664      -0.61519
 H      1.47171     -7.97412       0.17280
 H      2.08728    -10.10592       0.34273
 H      0.56589    -10.51248       0.10970
 H      0.89998    -10.24980       1.67491
 H      2.52753     -3.62340       0.49545
 H      3.67295     -4.40748       1.46842
 H     -0.51427     -6.21456       2.00402
 H     -2.05222     -7.06596       0.06668
 H     -2.18079     -5.43972       0.50764
 H     -1.34704     -5.58228      -1.83122
 H     -0.24934     -6.80196      -1.47702
 H      1.26036     -5.27076      -1.29419
 N      0.76167     -5.72220       0.62666
 N      1.00419     -8.49024       0.69692
 O      1.80969     -5.81328       2.60199
 O     -0.86881     -8.68296       1.93590
