26
Coordinates from ORCA-job r2SCAN-3c_gas E -573.151499387165
  C           2.89603002586460     -4.59701607418133      0.53328718585888
  C           1.92985550097986     -5.59279495933804      1.13555009260778
  C          -0.31254107027236     -6.63729786762690      1.01494907806512
  C          -1.55519772686004     -6.10800330302295      0.30330367768036
  C          -1.01713917920307     -5.69269258510762     -1.07000527415249
  C           0.33889913977488     -5.06393554397708     -0.74102903924971
  C          -0.07039587788635     -8.13606556883943      0.70578096817585
  C           1.37254003456623    -10.05259913211448      1.15736331032858
  H           3.25563682649255     -4.94587739368021     -0.44112594156822
  H           0.23298021606365     -3.99145167786059     -0.51868719223038
  H           1.54027622533191     -8.04624259236967      1.93729457935773
  H           2.13238820987004    -10.32100442748806      1.89508267519057
  H           1.78521116157194    -10.19368126358332      0.15026318821588
  H           0.51443852182394    -10.72359339018313      1.26274236638608
  H           2.42818132850993     -3.61870193247663      0.37990813252423
  H           3.74395777845160     -4.49317572218142      1.20988224968472
  H          -0.34314232174647     -6.50267347071697      2.10352241799835
  H          -2.33097496337282     -6.87264949439245      0.23638400828058
  H          -1.94495691150480     -5.23831886985035      0.84556363236435
  H          -1.67253858940982     -4.99634083887105     -1.60011426405942
  H          -0.88190294746635     -6.58634941712847     -1.68718427398456
  H           1.06417615543341     -5.17402546896948     -1.55532093134704
  N           0.77031891729026     -5.79492582881692      0.46359770342047
  N           0.96484347107617     -8.67499724668837      1.38300392530826
  O           2.19325942942470     -6.19643159828344      2.18244184598097
  O          -0.77328335480364     -8.76551433225129     -0.07902412083696
