26
Coordinates from ORCA-job optimise_minimum_44678 E -573.145431296213
  C           2.57706690115822     -5.25153109880884      1.48281094510553
  C           2.20139927413963     -5.41498173188204      0.02402880044059
  C          -0.07711218865014     -6.17843693533464      0.78670391072808
  C          -1.38033840516292     -6.32215105254504     -0.03551602844040
  C          -1.09510537826302     -5.53109163059930     -1.31434064864538
  C           0.37504719605853     -5.84421477827500     -1.58741901643658
  C           0.13200896381323     -7.43793137665949      1.63307030389102
  C           1.24599414718126     -9.63386589997360      1.75733331823114
  H           2.00322350888935     -4.43164641749567      1.93049394973832
  H           0.90513857123329     -5.08353621539668     -2.16584646532859
  H           1.46842406952589     -8.11612488354860      0.26389088649177
  H           2.28927890687673     -9.68784234721495      2.09153573227295
  H           1.04804997575878    -10.47372202101619      1.08188766878961
  H           0.59141840975052     -9.71301465124139      2.62797369428139
  H           2.37831285918743     -6.15016866124079      2.07486782132653
  H           3.63766964135106     -5.00567661446166      1.53238290597487
  H          -0.16142828953668     -5.34312039461992      1.49429625789921
  H          -1.54502952137582     -7.37982523563063     -0.27551451380707
  H          -2.24639874549363     -5.96898135011097      0.52773284055404
  H          -1.21689066238051     -4.45634484097287     -1.13420014838398
  H          -1.74896693528511     -5.81632683789999     -2.14330531863219
  H           0.48621923493422     -6.80535384452096     -2.11156207616772
  N           0.94782623701731     -5.91543422250983     -0.23246705868896
  N           0.96597898365903     -8.36722377670050      1.10240810443091
  O           2.96569671900074     -5.11118696804736     -0.88389684233794
  O          -0.48656347338745     -7.57662621329203      2.68008097671283
