26
Coordinates from ORCA-job optimise_minimum_44007 E -573.147088286499
  C           2.68046604831130     -5.20254911131161      1.55143971068882
  C           2.21894843741608     -5.28825857635289      0.11055111492762
  C          -0.04604763508257     -6.06514739898125      0.92449126978308
  C          -1.37760146964845     -5.86734297385990      0.17718896059361
  C          -1.03422155460137     -6.30093287693335     -1.25174413435792
  C           0.37512377133290     -5.74216565768215     -1.46059570224898
  C           0.02722523457451     -7.48562716444084      1.51444895008247
  C           1.12603702285102     -9.68865532724853      1.39509848229678
  H           2.22855889559499     -4.32920932214832      2.03656718207613
  H           0.36078995458742     -4.71002762237027     -1.83681848579556
  H           1.50899808482770     -7.94879474246834      0.20678385423187
  H           2.12824832039447     -9.82469094276772      1.81894769161413
  H           0.99330572589656    -10.39657098469898      0.56920874334154
  H           0.38292448000113     -9.89705080730957      2.16789935854592
  H           2.41135020476592     -6.08612656792525      2.13887287028802
  H           3.76302142559834     -5.07374397339836      1.55184540171418
  H           0.03229309223623     -5.38324091447456      1.77865996578331
  H          -2.18443781643613     -6.43976009364948      0.63987587971430
  H          -1.64694315118090     -4.80502337837860      0.19750982464307
  H          -1.74175484562876     -5.92332746923437     -1.99445321623644
  H          -1.02560490831679     -7.39530926644213     -1.31980922144338
  H           0.98554850508615     -6.33036400525502     -2.15373737781209
  N           0.95374845483062     -5.76524068109519     -0.10380356659277
  N           0.92776164821028     -8.32220549106091      0.94205054185077
  O           2.93231077682447     -4.94939785052300     -0.82706003559182
  O          -0.71912870244528     -7.79559679998840      2.43401193790329
