26
Coordinates from ORCA-job omega_eta_chi1_final_f Relaxed Surface Scan Step 44007 E -38.295526341750
  C       2.659859     -5.309681      1.595681
  C       2.233006     -5.376392      0.146705
  C      -0.072596     -5.972776      0.930786
  C      -1.394331     -5.939972      0.147284
  C      -0.975917     -6.373763     -1.256178
  C       0.386610     -5.709584     -1.419780
  C       0.094492     -7.358602      1.581084
  C       1.109434     -9.570823      1.328179
  H       2.189279     -4.454628      2.077718
  H       0.290002     -4.687416     -1.802518
  H       1.309767     -7.910259      0.041388
  H       2.176419     -9.713108      1.509681
  H       0.772892    -10.298510      0.587854
  H       0.561004     -9.719193      2.257160
  H       2.375631     -6.209117      2.136173
  H       3.738330     -5.184820      1.633967
  H      -0.076550     -5.237542      1.741918
  H      -2.141963     -6.591512      0.595023
  H      -1.785047     -4.922181      0.125281
  H      -1.682567     -6.053684     -2.018272
  H      -0.883428     -7.459600     -1.302885
  H       1.067596     -6.249047     -2.081980
  N       0.928544     -5.670513     -0.067652
  N       0.840975     -8.228189      0.875631
  O       2.993500     -5.185193     -0.782789
  O      -0.454020     -7.630255      2.627971

