26
Coordinates from ORCA-job omega_eta_chi1_final_f Relaxed Surface Scan Step 44678 E -38.294780937300
  C       2.554251     -5.276783      1.535241
  C       2.203022     -5.458691      0.077005
  C      -0.100648     -6.129095      0.800968
  C      -1.368544     -6.357066     -0.042007
  C      -1.081929     -5.590598     -1.331592
  C       0.406239     -5.846669     -1.534967
  C       0.173222     -7.364806      1.668310
  C       1.235644     -9.571102      1.673981
  H       1.983455     -4.445384      1.945383
  H       0.919585     -5.076877     -2.112892
  H       1.244946     -8.140938      0.121065
  H       2.319891     -9.653402      1.771671
  H       0.863087    -10.419919      1.098356
  H       0.781566     -9.577344      2.663671
  H       2.328567     -6.165695      2.118339
  H       3.613867     -5.049700      1.611515
  H      -0.236581     -5.275679      1.476894
  H      -1.484131     -7.421101     -0.256640
  H      -2.261370     -6.012278      0.473764
  H      -1.262782     -4.525461     -1.185606
  H      -1.683150     -5.938685     -2.168161
  H       0.576363     -6.813190     -2.025455
  N       0.933722     -5.861350     -0.179010
  N       0.869691     -8.329992      1.037729
  O       2.987809     -5.251116     -0.828060
  O      -0.254870     -7.463439      2.797927

