26
Coordinates from ORCA-job omega_eta_chi1_final_f Relaxed Surface Scan Step 1524 E -38.301383230110
  C       2.878939     -4.629566      0.461404
  C       1.929371     -5.615047      1.097531
  C      -0.304933     -6.626404      1.030749
  C      -1.566994     -6.097672      0.358739
  C      -1.053447     -5.723527     -1.029038
  C       0.313997     -5.108500     -0.731516
  C      -0.065574     -8.116718      0.698205
  C       1.432069     -9.984498      1.173756
  H       3.159321     -4.966507     -0.534435
  H       0.225835     -4.030957     -0.545128
  H       1.555756     -7.995433      1.915627
  H       1.459483    -10.498667      2.135730
  H       2.427951    -10.014421      0.727018
  H       0.724075    -10.484922      0.514614
  H       2.415723     -3.648854      0.378107
  H       3.769946     -4.557273      1.078610
  H      -0.311585     -6.516642      2.120809
  H      -2.337598     -6.863738      0.316773
  H      -1.945728     -5.222678      0.887402
  H      -1.709264     -5.033742     -1.555609
  H      -0.939712     -6.630609     -1.621177
  H       1.023935     -5.261575     -1.548406
  N       0.752976     -5.787520      0.473688
  N       0.991096     -8.622901      1.347641
  O       2.213448     -6.234078      2.116341
  O      -0.778167     -8.743911     -0.060006

