26
Coordinates from ORCA-job omega_eta_chi1_final_f Relaxed Surface Scan Step 940 E -38.300102404710
  C       2.874789     -4.694575      0.351590
  C       1.874828     -5.633134      0.986165
  C      -0.307696     -6.729597      0.834564
  C      -1.556532     -6.374786      0.024102
  C      -1.205097     -5.066436     -0.678955
  C       0.296863     -5.210918     -0.910753
  C       0.061217     -8.223307      0.664155
  C       1.522074     -9.974328      1.527206
  H       3.100285     -5.003464     -0.666030
  H       0.794431     -4.252771     -1.049973
  H       1.446324     -7.934302      2.114596
  H       1.439415    -10.422307      2.518360
  H       2.572001     -9.966968      1.227076
  H       0.946444    -10.561039      0.812817
  H       2.487964     -3.677180      0.337887
  H       3.783590     -4.712462      0.946914
  H      -0.411424     -6.517811      1.904732
  H      -1.723264     -7.171242     -0.704201
  H      -2.438823     -6.289899      0.654262
  H      -1.397052     -4.216088     -0.022417
  H      -1.756729     -4.926185     -1.605587
  H       0.490290     -5.847034     -1.782788
  N       0.752383     -5.879014      0.291010
  N       0.982708     -8.636847      1.542940
  O       2.089154     -6.166242      2.068507
  O      -0.457223     -8.928424     -0.178749

