26
Coordinates from ORCA-job optimise_minimum_1524 E -573.151497370883
  C           2.88572792733422     -4.58534366061657      0.52438508834175
  C           1.92431278371723     -5.58308896353232      1.13100337355060
  C          -0.31273620412861     -6.63926876060915      1.01443774461158
  C          -1.55780275868518     -6.11939498510313      0.30005890646111
  C          -1.02154073805529     -5.70772878948228     -1.07505454146205
  C           0.33166949855987     -5.07131815583194     -0.74899144388444
  C          -0.06297283102312     -8.13814223479950      0.71225170922872
  C           1.38924148587918    -10.04538763500768      1.17389946354449
  H           3.24527154099101     -4.93524010667447     -0.44966318818833
  H           0.22104776312034     -3.99817500885554     -0.53226436944479
  H           1.54582644313596     -8.03482608608419      1.94509453010976
  H           2.14861435366216    -10.30702867418778      1.91451331436353
  H           1.80496187765958    -10.18844350373293      0.16832974576334
  H           0.53417865729755    -10.72013304525111      1.27998281900393
  H           2.41352450181095     -3.60939573278887      0.36912137470025
  H           3.73415300857344     -4.47600629594973      1.19948107407375
  H          -0.34434237033994     -6.49959814087450      2.10233281639089
  H          -2.32980001055426     -6.88813423180068      0.23638813034612
  H          -1.95203360204557     -5.24922936470889      0.83828984001318
  H          -1.68008072664151     -5.01664887876648     -1.60816941869242
  H          -0.88235162174900     -6.60349241722974     -1.68828022462399
  H           1.05757153669709     -5.18245570935668     -1.56259111540505
  N           0.76610689398437     -5.79419115631501      0.45943407239228
  N           0.97408626561642     -8.66894027825817      1.39309024784759
  O           2.19005927522701     -6.18025017006874      2.18098868890318
  O          -0.76177295004389     -8.77449801411321     -0.07063863794507
