26
Coordinates from ORCA-job optimise_minimum_940 E -573.148894680339
  C           2.85928026943791     -4.61215865618797      0.42213229243641
  C           1.87053830041987     -5.59580784516752      1.01161321302237
  C          -0.30581199209358     -6.74984720116497      0.81966673156378
  C          -1.54462235234231     -6.37391338413564     -0.00722969759817
  C          -1.17204368996393     -5.06399172458825     -0.71318168685118
  C           0.32821881293336     -5.22750312054454     -0.95570676029896
  C           0.05884005104331     -8.24954546009912      0.67018715606084
  C           1.48403528019766    -10.03756349238885      1.51956721795143
  H           3.12118412489156     -4.86133723605043     -0.61068779922226
  H           0.84848817656370     -4.27862446304327     -1.10152091925895
  H           1.41431964111445     -7.97946693567169      2.14512902884172
  H           2.05641144078473    -10.23822877689819      2.42844809615572
  H           2.13769411492917    -10.16838809077011      0.64719020448064
  H           0.66999367787166    -10.76343756818165      1.43843421143287
  H           2.44868275008667     -3.59595304154504      0.43086073762862
  H           3.75617948732829     -4.62875447855234      1.04118053521436
  H          -0.41358576905964     -6.51370112641241      1.88625919958983
  H          -1.72287470408793     -7.17091246773268     -0.73623361288430
  H          -2.43402445593843     -6.28100713350401      0.62094513966128
  H          -1.34228207395091     -4.20151189619467     -0.05770615046550
  H          -1.73199456678716     -4.90874354856361     -1.63980733270761
  H           0.51479894589708     -5.86817362731652     -1.83059040573115
  N           0.77398262133160     -5.89703347083902      0.27157984852662
  N           0.94125575976926     -8.68986655696938      1.59275652274869
  O           2.06346869566613     -6.10215631557461      2.12291661009999
  O          -0.41921254604259     -8.95873238190292     -0.20877238039715
